(set-logic QF_NRA_ODE)
(declare-fun y () Real [0.000000, 4.000000])
(declare-fun x () Real [0.000000, 3.000000])
(declare-fun vy () Real [-2.000000, 2.000000])
(declare-fun vx () Real [-2.000000, 2.000000])
(declare-fun y_0_0 () Real [0.000000, 4.000000])
(declare-fun y_0_t () Real [0.000000, 4.000000])
(declare-fun y_1_0 () Real [0.000000, 4.000000])
(declare-fun y_1_t () Real [0.000000, 4.000000])
(declare-fun y_2_0 () Real [0.000000, 4.000000])
(declare-fun y_2_t () Real [0.000000, 4.000000])
(declare-fun y_3_0 () Real [0.000000, 4.000000])
(declare-fun y_3_t () Real [0.000000, 4.000000])
(declare-fun y_4_0 () Real [0.000000, 4.000000])
(declare-fun y_4_t () Real [0.000000, 4.000000])
(declare-fun y_5_0 () Real [0.000000, 4.000000])
(declare-fun y_5_t () Real [0.000000, 4.000000])
(declare-fun y_6_0 () Real [0.000000, 4.000000])
(declare-fun y_6_t () Real [0.000000, 4.000000])
(declare-fun y_7_0 () Real [0.000000, 4.000000])
(declare-fun y_7_t () Real [0.000000, 4.000000])
(declare-fun y_8_0 () Real [0.000000, 4.000000])
(declare-fun y_8_t () Real [0.000000, 4.000000])
(declare-fun y_9_0 () Real [0.000000, 4.000000])
(declare-fun y_9_t () Real [0.000000, 4.000000])
(declare-fun x_0_0 () Real [0.000000, 3.000000])
(declare-fun x_0_t () Real [0.000000, 3.000000])
(declare-fun x_1_0 () Real [0.000000, 3.000000])
(declare-fun x_1_t () Real [0.000000, 3.000000])
(declare-fun x_2_0 () Real [0.000000, 3.000000])
(declare-fun x_2_t () Real [0.000000, 3.000000])
(declare-fun x_3_0 () Real [0.000000, 3.000000])
(declare-fun x_3_t () Real [0.000000, 3.000000])
(declare-fun x_4_0 () Real [0.000000, 3.000000])
(declare-fun x_4_t () Real [0.000000, 3.000000])
(declare-fun x_5_0 () Real [0.000000, 3.000000])
(declare-fun x_5_t () Real [0.000000, 3.000000])
(declare-fun x_6_0 () Real [0.000000, 3.000000])
(declare-fun x_6_t () Real [0.000000, 3.000000])
(declare-fun x_7_0 () Real [0.000000, 3.000000])
(declare-fun x_7_t () Real [0.000000, 3.000000])
(declare-fun x_8_0 () Real [0.000000, 3.000000])
(declare-fun x_8_t () Real [0.000000, 3.000000])
(declare-fun x_9_0 () Real [0.000000, 3.000000])
(declare-fun x_9_t () Real [0.000000, 3.000000])
(declare-fun vy_0_0 () Real [-2.000000, 2.000000])
(declare-fun vy_0_t () Real [-2.000000, 2.000000])
(declare-fun vy_1_0 () Real [-2.000000, 2.000000])
(declare-fun vy_1_t () Real [-2.000000, 2.000000])
(declare-fun vy_2_0 () Real [-2.000000, 2.000000])
(declare-fun vy_2_t () Real [-2.000000, 2.000000])
(declare-fun vy_3_0 () Real [-2.000000, 2.000000])
(declare-fun vy_3_t () Real [-2.000000, 2.000000])
(declare-fun vy_4_0 () Real [-2.000000, 2.000000])
(declare-fun vy_4_t () Real [-2.000000, 2.000000])
(declare-fun vy_5_0 () Real [-2.000000, 2.000000])
(declare-fun vy_5_t () Real [-2.000000, 2.000000])
(declare-fun vy_6_0 () Real [-2.000000, 2.000000])
(declare-fun vy_6_t () Real [-2.000000, 2.000000])
(declare-fun vy_7_0 () Real [-2.000000, 2.000000])
(declare-fun vy_7_t () Real [-2.000000, 2.000000])
(declare-fun vy_8_0 () Real [-2.000000, 2.000000])
(declare-fun vy_8_t () Real [-2.000000, 2.000000])
(declare-fun vy_9_0 () Real [-2.000000, 2.000000])
(declare-fun vy_9_t () Real [-2.000000, 2.000000])
(declare-fun vx_0_0 () Real [-2.000000, 2.000000])
(declare-fun vx_0_t () Real [-2.000000, 2.000000])
(declare-fun vx_1_0 () Real [-2.000000, 2.000000])
(declare-fun vx_1_t () Real [-2.000000, 2.000000])
(declare-fun vx_2_0 () Real [-2.000000, 2.000000])
(declare-fun vx_2_t () Real [-2.000000, 2.000000])
(declare-fun vx_3_0 () Real [-2.000000, 2.000000])
(declare-fun vx_3_t () Real [-2.000000, 2.000000])
(declare-fun vx_4_0 () Real [-2.000000, 2.000000])
(declare-fun vx_4_t () Real [-2.000000, 2.000000])
(declare-fun vx_5_0 () Real [-2.000000, 2.000000])
(declare-fun vx_5_t () Real [-2.000000, 2.000000])
(declare-fun vx_6_0 () Real [-2.000000, 2.000000])
(declare-fun vx_6_t () Real [-2.000000, 2.000000])
(declare-fun vx_7_0 () Real [-2.000000, 2.000000])
(declare-fun vx_7_t () Real [-2.000000, 2.000000])
(declare-fun vx_8_0 () Real [-2.000000, 2.000000])
(declare-fun vx_8_t () Real [-2.000000, 2.000000])
(declare-fun vx_9_0 () Real [-2.000000, 2.000000])
(declare-fun vx_9_t () Real [-2.000000, 2.000000])
(declare-fun time_0 () Real [0.000000, 10.000000])
(declare-fun time_1 () Real [0.000000, 10.000000])
(declare-fun time_2 () Real [0.000000, 10.000000])
(declare-fun time_3 () Real [0.000000, 10.000000])
(declare-fun time_4 () Real [0.000000, 10.000000])
(declare-fun time_5 () Real [0.000000, 10.000000])
(declare-fun time_6 () Real [0.000000, 10.000000])
(declare-fun time_7 () Real [0.000000, 10.000000])
(declare-fun time_8 () Real [0.000000, 10.000000])
(declare-fun time_9 () Real [0.000000, 10.000000])
(declare-fun mode_0 () Real [1.000000, 10.000000])
(declare-fun mode_1 () Real [1.000000, 10.000000])
(declare-fun mode_2 () Real [1.000000, 10.000000])
(declare-fun mode_3 () Real [1.000000, 10.000000])
(declare-fun mode_4 () Real [1.000000, 10.000000])
(declare-fun mode_5 () Real [1.000000, 10.000000])
(declare-fun mode_6 () Real [1.000000, 10.000000])
(declare-fun mode_7 () Real [1.000000, 10.000000])
(declare-fun mode_8 () Real [1.000000, 10.000000])
(declare-fun mode_9 () Real [1.000000, 10.000000])
(define-ode flow_1 ((= d/dt[vx] (+ (+ (- 0 (/ 1 10)) (* vy (/ 1 10))) (* vx (/ 1 10)))) (= d/dt[vy] (+ (+ (- 0 (/ 1 10)) (* vy (/ 1 10))) (* vx (/ 1 10)))) (= d/dt[x] vx) (= d/dt[y] vy)))
(define-ode flow_2 ((= d/dt[vx] (+ (+ (- 0 (/ 1 10)) (* vy (/ 1 10))) (* vx (/ 1 10)))) (= d/dt[vy] (+ (+ (- 0 (/ 1 10)) (* vy (/ 1 10))) (* vx (/ 1 10)))) (= d/dt[x] vx) (= d/dt[y] vy)))
(define-ode flow_3 ((= d/dt[vx] (+ (+ (- 0 (/ 1 10)) (* vy (/ 1 10))) (* vx (/ 1 10)))) (= d/dt[vy] (+ (+ (- 0 (/ 1 10)) (* vy (/ 1 10))) (* vx (/ 1 10)))) (= d/dt[x] vx) (= d/dt[y] vy)))
(define-ode flow_4 ((= d/dt[vx] (+ (+ (- 0 (/ 1 10)) (* vy (/ 1 10))) (* vx (/ 1 10)))) (= d/dt[vy] (+ (+ (- 0 (/ 1 10)) (* vy (/ 1 10))) (* vx (/ 1 10)))) (= d/dt[x] vx) (= d/dt[y] vy)))
(define-ode flow_5 ((= d/dt[vx] (+ (+ (/ 1 10) (* vy (/ 1 10))) (* vx (/ 1 10)))) (= d/dt[vy] (+ (+ (/ 1 10) (* vy (/ 1 10))) (* vx (/ 1 10)))) (= d/dt[x] vx) (= d/dt[y] vy)))
(define-ode flow_6 ((= d/dt[vx] (+ (+ (/ 1 10) (* vy (/ 1 10))) (* vx (/ 1 10)))) (= d/dt[vy] (+ (+ (/ 1 10) (* vy (/ 1 10))) (* vx (/ 1 10)))) (= d/dt[x] vx) (= d/dt[y] vy)))
(define-ode flow_7 ((= d/dt[vx] (+ (+ (/ 1 10) (* vy (/ 1 10))) (* vx (/ 1 10)))) (= d/dt[vy] (+ (+ (/ 1 10) (* vy (/ 1 10))) (* vx (/ 1 10)))) (= d/dt[x] vx) (= d/dt[y] vy)))
(define-ode flow_8 ((= d/dt[vx] (+ (+ (/ 1 10) (* vy (/ 1 10))) (* vx (/ 1 10)))) (= d/dt[vy] (+ (+ (/ 1 10) (* vy (/ 1 10))) (* vx (/ 1 10)))) (= d/dt[x] vx) (= d/dt[y] vy)))
(define-ode flow_9 ((= d/dt[vx] 0) (= d/dt[vy] 0) (= d/dt[x] 0) (= d/dt[y] 0)))
(define-ode flow_10 ((= d/dt[vx] 0) (= d/dt[vy] 0) (= d/dt[x] 0) (= d/dt[y] 0)))
(assert (and (or (= mode_9 10) (= mode_9 9) (= mode_9 8) (= mode_9 7) (= mode_9 6) (= mode_9 5) (= mode_9 4) (= mode_9 3) (= mode_9 2)) (and (= vx_0_0 -1) (= (* 2 y_0_0) 7) (= (* 5 x_0_0) 1) (= vy_0_0 1)) (= mode_0 1) (= [vx_0_t vy_0_t x_0_t y_0_t] (integral 0. time_0 [vx_0_0 vy_0_0 x_0_0 y_0_0] flow_1)) (= mode_0 1) (forall_t 1 [0 time_0] (>= (* -2 vy_0_t) -3)) (>= (* -2 vy_0_t) -3) (>= (* -2 vy_0_0) -3) (forall_t 1 [0 time_0] (>= (* -2 vx_0_t) 1)) (>= (* -2 vx_0_t) 1) (>= (* -2 vx_0_0) 1) (forall_t 1 [0 time_0] (>= (- 0 y_0_t) -4)) (>= (- 0 y_0_t) -4) (>= (- 0 y_0_0) -4) (forall_t 1 [0 time_0] (>= (- 0 x_0_t) -1)) (>= (- 0 x_0_t) -1) (>= (- 0 x_0_0) -1) (forall_t 1 [0 time_0] (>= vy_0_t 1)) (>= vy_0_t 1) (>= vy_0_0 1) (forall_t 1 [0 time_0] (>= x_0_t 0)) (>= x_0_t 0) (>= x_0_0 0) (forall_t 1 [0 time_0] (>= y_0_t 3)) (>= y_0_t 3) (>= y_0_0 3) (forall_t 1 [0 time_0] (>= vx_0_t -1)) (>= vx_0_t -1) (>= vx_0_0 -1) (= mode_1 2) (>= (* -30 x_0_t) -1) (>= x_0_t 0) (= vx_0_t -1) (= y_0_t 4) (= vy_1_0 1) (= vx_1_0 -1) (= y_1_0 4) (= (- x_0_t x_1_0) 0) (= vy_0_t 1) (= [vx_1_t vy_1_t x_1_t y_1_t] (integral 0. time_1 [vx_1_0 vy_1_0 x_1_0 y_1_0] flow_2)) (= mode_1 2) (forall_t 2 [0 time_1] (>= (- 0 vy_1_t) -2)) (>= (- 0 vy_1_t) -2) (>= (- 0 vy_1_0) -2) (forall_t 2 [0 time_1] (>= (- 0 vx_1_t) -2)) (>= (- 0 vx_1_t) -2) (>= (- 0 vx_1_0) -2) (forall_t 2 [0 time_1] (>= (- 0 y_1_t) -5)) (>= (- 0 y_1_t) -5) (>= (- 0 y_1_0) -5) (forall_t 2 [0 time_1] (>= (- 0 x_1_t) -1)) (>= (- 0 x_1_t) -1) (>= (- 0 x_1_0) -1) (forall_t 2 [0 time_1] (>= vy_1_t -2)) (>= vy_1_t -2) (>= vy_1_0 -2) (forall_t 2 [0 time_1] (>= x_1_t 0)) (>= x_1_t 0) (>= x_1_0 0) (forall_t 2 [0 time_1] (>= y_1_t 4)) (>= y_1_t 4) (>= y_1_0 4) (forall_t 2 [0 time_1] (>= vx_1_t -2)) (>= vx_1_t -2) (>= vx_1_0 -2) (= mode_2 3) (>= (- 0 vx_1_t) -2) (>= (- 0 x_1_t) -1) (>= (- 0 vy_1_t) 0) (>= vy_1_t -2) (>= vx_1_t -2) (>= x_1_t 0) (= (- vy_1_t vy_2_0) 0) (= (- vx_1_t vx_2_0) 0) (= y_2_0 4) (= (- x_1_t x_2_0) 0) (= y_1_t 4) (= [vx_2_t vy_2_t x_2_t y_2_t] (integral 0. time_2 [vx_2_0 vy_2_0 x_2_0 y_2_0] flow_3)) (= mode_2 3) (forall_t 3 [0 time_2] (>= (- 0 vy_2_t) 0)) (>= (- 0 vy_2_t) 0) (>= (- 0 vy_2_0) 0) (forall_t 3 [0 time_2] (>= (- 0 vx_2_t) -2)) (>= (- 0 vx_2_t) -2) (>= (- 0 vx_2_0) -2) (forall_t 3 [0 time_2] (>= (- 0 y_2_t) -4)) (>= (- 0 y_2_t) -4) (>= (- 0 y_2_0) -4) (forall_t 3 [0 time_2] (>= (- 0 x_2_t) -1)) (>= (- 0 x_2_t) -1) (>= (- 0 x_2_0) -1) (forall_t 3 [0 time_2] (>= vy_2_t -2)) (>= vy_2_t -2) (>= vy_2_0 -2) (forall_t 3 [0 time_2] (>= x_2_t 0)) (>= x_2_t 0) (>= x_2_0 0) (forall_t 3 [0 time_2] (>= y_2_t 3)) (>= y_2_t 3) (>= y_2_0 3) (forall_t 3 [0 time_2] (>= vx_2_t -2)) (>= vx_2_t -2) (>= vx_2_0 -2) (= mode_3 4) (>= (- 0 x_2_t) -1) (>= (- 0 vx_2_t) -2) (>= (- 0 vy_2_t) 0) (>= vy_2_t -2) (>= vx_2_t -2) (>= x_2_t 0) (= (- vy_2_t vy_3_0) 0) (= (- vx_2_t vx_3_0) 0) (= y_3_0 3) (= (- x_2_t x_3_0) 0) (= y_2_t 3) (= [vx_3_t vy_3_t x_3_t y_3_t] (integral 0. time_3 [vx_3_0 vy_3_0 x_3_0 y_3_0] flow_4)) (= mode_3 4) (forall_t 4 [0 time_3] (>= (- 0 vy_3_t) -2)) (>= (- 0 vy_3_t) -2) (>= (- 0 vy_3_0) -2) (forall_t 4 [0 time_3] (>= (- 0 vx_3_t) -2)) (>= (- 0 vx_3_t) -2) (>= (- 0 vx_3_0) -2) (forall_t 4 [0 time_3] (>= (- 0 y_3_t) -3)) (>= (- 0 y_3_t) -3) (>= (- 0 y_3_0) -3) (forall_t 4 [0 time_3] (>= (- 0 x_3_t) -1)) (>= (- 0 x_3_t) -1) (>= (- 0 x_3_0) -1) (forall_t 4 [0 time_3] (>= vy_3_t -2)) (>= vy_3_t -2) (>= vy_3_0 -2) (forall_t 4 [0 time_3] (>= x_3_t 0)) (>= x_3_t 0) (>= x_3_0 0) (forall_t 4 [0 time_3] (>= y_3_t 2)) (>= y_3_t 2) (>= y_3_0 2) (forall_t 4 [0 time_3] (>= vx_3_t -2)) (>= vx_3_t -2) (>= vx_3_0 -2) (= mode_4 5) (>= (- 0 y_3_t) -3) (>= (- 0 vx_3_t) -2) (>= (- 0 vy_3_t) -2) (>= vy_3_t -2) (>= vx_3_t -2) (>= y_3_t 2) (= (- vy_3_t vy_4_0) 0) (= (- vx_3_t vx_4_0) 0) (= (- y_3_t y_4_0) 0) (= x_4_0 1) (= x_3_t 1) (= [vx_4_t vy_4_t x_4_t y_4_t] (integral 0. time_4 [vx_4_0 vy_4_0 x_4_0 y_4_0] flow_5)) (= mode_4 5) (forall_t 5 [0 time_4] (>= (- 0 vy_4_t) -2)) (>= (- 0 vy_4_t) -2) (>= (- 0 vy_4_0) -2) (forall_t 5 [0 time_4] (>= (- 0 vx_4_t) -2)) (>= (- 0 vx_4_t) -2) (>= (- 0 vx_4_0) -2) (forall_t 5 [0 time_4] (>= (- 0 y_4_t) -3)) (>= (- 0 y_4_t) -3) (>= (- 0 y_4_0) -3) (forall_t 5 [0 time_4] (>= (- 0 x_4_t) -2)) (>= (- 0 x_4_t) -2) (>= (- 0 x_4_0) -2) (forall_t 5 [0 time_4] (>= vy_4_t -2)) (>= vy_4_t -2) (>= vy_4_0 -2) (forall_t 5 [0 time_4] (>= x_4_t 1)) (>= x_4_t 1) (>= x_4_0 1) (forall_t 5 [0 time_4] (>= y_4_t 2)) (>= y_4_t 2) (>= y_4_0 2) (forall_t 5 [0 time_4] (>= vx_4_t -2)) (>= vx_4_t -2) (>= vx_4_0 -2) (= mode_5 6) (>= (- 0 y_4_t) -3) (>= (- 0 vx_4_t) -2) (>= (- 0 vy_4_t) -2) (>= vy_4_t -2) (>= vx_4_t -2) (>= y_4_t 2) (= (- vy_4_t vy_5_0) 0) (= (- vx_4_t vx_5_0) 0) (= (- y_4_t y_5_0) 0) (= x_5_0 2) (= x_4_t 2) (= [vx_5_t vy_5_t x_5_t y_5_t] (integral 0. time_5 [vx_5_0 vy_5_0 x_5_0 y_5_0] flow_6)) (= mode_5 6) (forall_t 6 [0 time_5] (>= (- 0 vy_5_t) -2)) (>= (- 0 vy_5_t) -2) (>= (- 0 vy_5_0) -2) (forall_t 6 [0 time_5] (>= (- 0 vx_5_t) -2)) (>= (- 0 vx_5_t) -2) (>= (- 0 vx_5_0) -2) (forall_t 6 [0 time_5] (>= (- 0 y_5_t) -3)) (>= (- 0 y_5_t) -3) (>= (- 0 y_5_0) -3) (forall_t 6 [0 time_5] (>= (- 0 x_5_t) -3)) (>= (- 0 x_5_t) -3) (>= (- 0 x_5_0) -3) (forall_t 6 [0 time_5] (>= vy_5_t -2)) (>= vy_5_t -2) (>= vy_5_0 -2) (forall_t 6 [0 time_5] (>= x_5_t 2)) (>= x_5_t 2) (>= x_5_0 2) (forall_t 6 [0 time_5] (>= y_5_t 2)) (>= y_5_t 2) (>= y_5_0 2) (forall_t 6 [0 time_5] (>= vx_5_t -2)) (>= vx_5_t -2) (>= vx_5_0 -2) (= mode_6 7) (>= (- 0 x_5_t) -3) (>= (- 0 vx_5_t) -2) (>= (- 0 vy_5_t) -2) (>= vy_5_t -2) (>= vx_5_t -2) (>= x_5_t 2) (= (- vy_5_t vy_6_0) 0) (= (- vx_5_t vx_6_0) 0) (= y_6_0 2) (= (- x_5_t x_6_0) 0) (= y_5_t 2) (= [vx_6_t vy_6_t x_6_t y_6_t] (integral 0. time_6 [vx_6_0 vy_6_0 x_6_0 y_6_0] flow_7)) (= mode_6 7) (forall_t 7 [0 time_6] (>= (- 0 vy_6_t) -2)) (>= (- 0 vy_6_t) -2) (>= (- 0 vy_6_0) -2) (forall_t 7 [0 time_6] (>= (- 0 vx_6_t) -2)) (>= (- 0 vx_6_t) -2) (>= (- 0 vx_6_0) -2) (forall_t 7 [0 time_6] (>= (- 0 y_6_t) -2)) (>= (- 0 y_6_t) -2) (>= (- 0 y_6_0) -2) (forall_t 7 [0 time_6] (>= (- 0 x_6_t) -3)) (>= (- 0 x_6_t) -3) (>= (- 0 x_6_0) -3) (forall_t 7 [0 time_6] (>= vy_6_t -2)) (>= vy_6_t -2) (>= vy_6_0 -2) (forall_t 7 [0 time_6] (>= x_6_t 2)) (>= x_6_t 2) (>= x_6_0 2) (forall_t 7 [0 time_6] (>= y_6_t 1)) (>= y_6_t 1) (>= y_6_0 1) (forall_t 7 [0 time_6] (>= vx_6_t -2)) (>= vx_6_t -2) (>= vx_6_0 -2) (= mode_7 8) (>= (- 0 x_6_t) -3) (>= (- 0 vx_6_t) -2) (>= (- 0 vy_6_t) -2) (>= vy_6_t -2) (>= vx_6_t -2) (>= x_6_t 2) (= (- vy_6_t vy_7_0) 0) (= (- vx_6_t vx_7_0) 0) (= y_7_0 1) (= (- x_6_t x_7_0) 0) (= y_6_t 1) (= [vx_7_t vy_7_t x_7_t y_7_t] (integral 0. time_7 [vx_7_0 vy_7_0 x_7_0 y_7_0] flow_8)) (= mode_7 8) (forall_t 8 [0 time_7] (>= (- 0 vy_7_t) -2)) (>= (- 0 vy_7_t) -2) (>= (- 0 vy_7_0) -2) (forall_t 8 [0 time_7] (>= (- 0 vx_7_t) -2)) (>= (- 0 vx_7_t) -2) (>= (- 0 vx_7_0) -2) (forall_t 8 [0 time_7] (>= (- 0 y_7_t) -1)) (>= (- 0 y_7_t) -1) (>= (- 0 y_7_0) -1) (forall_t 8 [0 time_7] (>= (- 0 x_7_t) -3)) (>= (- 0 x_7_t) -3) (>= (- 0 x_7_0) -3) (forall_t 8 [0 time_7] (>= vy_7_t -2)) (>= vy_7_t -2) (>= vy_7_0 -2) (forall_t 8 [0 time_7] (>= x_7_t 2)) (>= x_7_t 2) (>= x_7_0 2) (forall_t 8 [0 time_7] (>= y_7_t 0)) (>= y_7_t 0) (>= y_7_0 0) (forall_t 8 [0 time_7] (>= vx_7_t -2)) (>= vx_7_t -2) (>= vx_7_0 -2) (= mode_8 9) (>= (- 0 y_7_t) -1) (>= (- 0 vx_7_t) -2) (>= (- 0 vy_7_t) -2) (>= vy_7_t -2) (>= vx_7_t -2) (>= y_7_t 0) (= (- vy_7_t vy_8_0) 0) (= (- vx_7_t vx_8_0) 0) (= (- y_7_t y_8_0) 0) (= x_8_0 3) (= x_7_t 3) (= y_8_t (+ y_8_0 (* 0 time_8))) (= x_8_t (+ x_8_0 (* 0 time_8))) (= vy_8_t (+ vy_8_0 (* 0 time_8))) (= vx_8_t (+ vx_8_0 (* 0 time_8))) (= [vx_8_t vy_8_t x_8_t y_8_t] (integral 0. time_8 [vx_8_0 vy_8_0 x_8_0 y_8_0] flow_9)) (= mode_8 9) (forall_t 9 [0 time_8] (>= (- 0 vy_8_t) -2)) (>= (- 0 vy_8_t) -2) (>= (- 0 vy_8_0) -2) (forall_t 9 [0 time_8] (>= (- 0 vx_8_t) -2)) (>= (- 0 vx_8_t) -2) (>= (- 0 vx_8_0) -2) (forall_t 9 [0 time_8] (>= (- 0 y_8_t) -1)) (>= (- 0 y_8_t) -1) (>= (- 0 y_8_0) -1) (forall_t 9 [0 time_8] (>= (- 0 x_8_t) -4)) (>= (- 0 x_8_t) -4) (>= (- 0 x_8_0) -4) (forall_t 9 [0 time_8] (>= vy_8_t -2)) (>= vy_8_t -2) (>= vy_8_0 -2) (forall_t 9 [0 time_8] (>= x_8_t 3)) (>= x_8_t 3) (>= x_8_0 3) (forall_t 9 [0 time_8] (>= y_8_t 0)) (>= y_8_t 0) (>= y_8_0 0) (forall_t 9 [0 time_8] (>= vx_8_t -2)) (>= vx_8_t -2) (>= vx_8_0 -2) (= mode_9 10) (= (- x_8_t x_9_0) 0) (= (- y_8_t y_9_0) 0) (= (- vx_8_t vx_9_0) 0) (= (- vy_8_t vy_9_0) 0) (= y_9_t (+ y_9_0 (* 0 time_9))) (= x_9_t (+ x_9_0 (* 0 time_9))) (= vy_9_t (+ vy_9_0 (* 0 time_9))) (= vx_9_t (+ vx_9_0 (* 0 time_9))) (= [vx_9_t vy_9_t x_9_t y_9_t] (integral 0. time_9 [vx_9_0 vy_9_0 x_9_0 y_9_0] flow_10)) (= mode_9 10) (forall_t 10 [0 time_9] (= x_9_t 3)) (= x_9_t 3) (= x_9_0 3) (forall_t 10 [0 time_9] (>= (- 0 vy_9_t) -2)) (>= (- 0 vy_9_t) -2) (>= (- 0 vy_9_0) -2) (forall_t 10 [0 time_9] (>= (- 0 vx_9_t) -2)) (>= (- 0 vx_9_t) -2) (>= (- 0 vx_9_0) -2) (forall_t 10 [0 time_9] (>= (- 0 y_9_t) -1)) (>= (- 0 y_9_t) -1) (>= (- 0 y_9_0) -1) (forall_t 10 [0 time_9] (>= vy_9_t -2)) (>= vy_9_t -2) (>= vy_9_0 -2) (forall_t 10 [0 time_9] (>= y_9_t 0)) (>= y_9_t 0) (>= y_9_0 0) (forall_t 10 [0 time_9] (>= vx_9_t -2)) (>= vx_9_t -2) (>= vx_9_0 -2)))
(check-sat)
(exit)
